c At least one of three literals should be true.
c ===============================================
p cnf 3 1
1 2 3 0

c Seven solutions
c ====================
p cnf 3 3
-1 2 0
-2 -1 3 0
1 0
